Minimize
  - 6 y_0 - 24 y_1 - 16 y_2 - 24 y_3 - 27 y_4 - 11 y_5 - 17 y_6 - 23 y_7
   - 17 y_8 - 20 y_9 - 15 y_10 - 7 y_11 - 11 y_12 - 21 y_13 - 22 y_14
   - 12 y_15 - 13 y_16 - 20 y_17 - 9 y_18 - 3 y_19 - 21 y_20 - 30 y_21
   - 28 y_22 - 14 y_23 - 10 y_24 - 24 y_25 - 2 y_26 - 21 y_27 - 16 y_28
   - 20 y_29 - 17 y_30 - 30 y_31 - 17 y_32 - 15 y_33 - 12 y_34 - 18 y_36
   - 26 y_37 - 5 y_38 - 25 y_39 - 16 y_40 - 17 y_41 - 18 y_42 - 22 y_43
   - 15 y_44 - 28 y_45 - 21 y_46 - 28 y_47 - 14 y_48 - 6 y_49 - 14 y_50
   - 7 y_51 - 6 y_52 - 13 y_53 - 20 y_54 - 18 y_55 - 32 y_56 - 23 y_57
   - 23 y_58 - 14 y_59 - 11 y_60 - 24 y_61 - 26 y_62 - 6 y_63 - 11 y_64
   - 10 y_65 - 9 y_66 - 8 y_67 - 23 y_68 - 26 y_69 - 14 y_70 - 21 y_71
   - 17 y_72 - 7 y_73 - 23 y_74 - 25 y_75 - 32 y_76 - 16 y_77 - 22 y_78
   - 31 y_79 - 25 y_80 - 7 y_81 - 22 y_82 - 19 y_83 - 13 y_84 - 29 y_85
   - 20 y_86 - 23 y_87 - 29 y_88 - 10 y_89 - 10 y_90 - 8 y_91 - 8 y_92
   - 20 y_93 - 19 y_94 - 18 y_95 - 26 y_96 - 29 y_97 - 19 y_98 - 8 y_99
   + 1748 Constant
Subject To
 c_0: y_43 = 1
 c_1_0: y_0 + y_5 + y_26 + y_38 + y_51 + y_91 >= 1
 c_1_1: y_1 + y_25 + y_93 >= 1
 c_1_2: y_2 + y_23 + y_33 >= 1
 c_1_3: y_3 + y_46 + y_68 + y_74 >= 1
 c_1_4: y_4 + y_31 + y_43 + y_58 + y_62 + y_88 >= 1
 c_1_5: y_0 + y_5 + y_48 + y_84 + y_91 >= 1
 c_1_6: y_6 + y_17 + y_32 + y_40 + y_43 + y_58 >= 1
 c_1_7: y_7 + y_39 + y_54 >= 1
 c_1_8: y_8 + y_42 >= 1
 c_1_9: y_9 + y_29 + y_41 + y_71 + y_80 >= 1
 c_1_10: y_10 + y_50 + y_60 + y_70 >= 1
 c_1_11: y_11 + y_12 + y_24 + y_63 + y_64 + y_65 + y_73 + y_89 >= 1
 c_1_12: y_11 + y_12 + y_24 + y_34 + y_53 + y_64 + y_65 + y_89 >= 1
 c_1_13: y_13 + y_27 >= 1
 c_1_14: y_14 + y_78 >= 1
 c_1_15: y_15 + y_92 + y_99 >= 1
 c_1_16: y_16 + y_18 + y_28 + y_48 + y_67 >= 1
 c_1_17: y_6 + y_17 + y_32 + y_43 + y_58 + y_95 >= 1
 c_1_18: y_16 + y_18 + y_49 + y_52 + y_66 + y_67 + y_99 >= 1
 c_1_19: y_19 + y_26 + y_35 + y_38 >= 1
 c_1_20: y_20 + y_55 + y_94 + y_98 >= 1
 c_1_21: y_21 + y_45 >= 1
 c_1_22: y_22 + y_62 + y_88 >= 1
 c_1_23: y_2 + y_23 + y_33 >= 1
 c_1_24: y_11 + y_12 + y_24 + y_34 + y_63 + y_64 + y_65 + y_89 >= 1
 c_1_25: y_1 + y_25 + y_86 + y_93 >= 1
 c_1_26: y_0 + y_19 + y_26 + y_35 + y_38 + y_51 + y_81 >= 1
 c_1_27: y_13 + y_27 >= 1
 c_1_28: y_16 + y_28 + y_48 >= 1
 c_1_29: y_9 + y_29 + y_41 + y_71 >= 1
 c_1_30: y_30 + y_36 + y_53 + y_55 >= 1
 c_1_31: y_4 + y_31 + y_62 + y_79 >= 1
 c_1_32: y_6 + y_17 + y_32 + y_40 + y_43 >= 1
 c_1_33: y_2 + y_23 + y_33 >= 1
 c_1_34: y_12 + y_24 + y_34 >= 1
 c_1_35: y_19 + y_26 + y_35 >= 1
 c_1_36: y_30 + y_36 >= 1
 c_1_37: y_37 + y_61 >= 1
 c_1_38: y_0 + y_19 + y_26 + y_38 + y_51 + y_81 >= 1
 c_1_39: y_7 + y_39 >= 1
 c_1_40: y_6 + y_32 + y_40 >= 1
 c_1_41: y_9 + y_29 + y_41 + y_71 >= 1
 c_1_42: y_8 + y_42 >= 1
 c_1_43: y_4 + y_6 + y_17 + y_32 + y_43 + y_58 + y_62 >= 1
 c_1_44: y_44 + y_77 >= 1
 c_1_45: y_21 + y_45 + y_97 >= 1
 c_1_46: y_3 + y_46 + y_68 + y_74 >= 1
 c_1_47: y_47 >= 1
 c_1_48: y_5 + y_16 + y_28 + y_48 + y_84 >= 1
 c_1_49: y_18 + y_49 + y_52 + y_66 + y_67 + y_92 + y_99 >= 1
 c_1_50: y_10 + y_50 + y_60 + y_70 + y_90 >= 1
 c_1_51: y_0 + y_26 + y_38 + y_51 + y_81 >= 1
 c_1_52: y_18 + y_49 + y_52 + y_66 + y_67 + y_92 + y_99 >= 1
 c_1_53: y_12 + y_30 + y_53 + y_55 + y_64 + y_65 + y_89 >= 1
 c_1_54: y_7 + y_54 + y_78 >= 1
 c_1_55: y_20 + y_30 + y_53 + y_55 + y_94 + y_98 >= 1
 c_1_56: y_56 >= 1
 c_1_57: y_57 + y_69 >= 1
 c_1_58: y_4 + y_6 + y_17 + y_43 + y_58 + y_62 >= 1
 c_1_59: y_59 + y_72 >= 1
 c_1_60: y_10 + y_50 + y_60 + y_70 >= 1
 c_1_61: y_37 + y_61 + y_75 >= 1
 c_1_62: y_4 + y_22 + y_31 + y_43 + y_58 + y_62 + y_88 >= 1
 c_1_63: y_11 + y_24 + y_63 + y_73 >= 1
 c_1_64: y_11 + y_12 + y_24 + y_53 + y_64 + y_65 + y_89 >= 1
 c_1_65: y_11 + y_12 + y_24 + y_53 + y_64 + y_65 + y_89 + y_90 >= 1
 c_1_66: y_18 + y_49 + y_52 + y_66 + y_67 + y_99 >= 1
 c_1_67: y_16 + y_18 + y_49 + y_52 + y_66 + y_67 + y_91 >= 1
 c_1_68: y_3 + y_46 + y_68 + y_74 >= 1
 c_1_69: y_57 + y_69 + y_96 >= 1
 c_1_70: y_10 + y_50 + y_60 + y_70 + y_90 >= 1
 c_1_71: y_9 + y_29 + y_41 + y_71 + y_75 + y_80 >= 1
 c_1_72: y_59 + y_72 + y_95 >= 1
 c_1_73: y_11 + y_63 + y_73 >= 1
 c_1_74: y_3 + y_46 + y_68 + y_74 + y_80 >= 1
 c_1_75: y_61 + y_71 + y_75 >= 1
 c_1_76: y_76 + y_79 >= 1
 c_1_77: y_44 + y_77 >= 1
 c_1_78: y_14 + y_54 + y_78 >= 1
 c_1_79: y_31 + y_76 + y_79 >= 1
 c_1_80: y_9 + y_71 + y_74 + y_80 >= 1
 c_1_81: y_26 + y_38 + y_51 + y_81 >= 1
 c_1_82: y_82 >= 1
 c_1_83: y_83 >= 1
 c_1_84: y_5 + y_48 + y_84 >= 1
 c_1_85: y_85 >= 1
 c_1_86: y_25 + y_86 + y_93 >= 1
 c_1_87: y_87 + y_95 >= 1
 c_1_88: y_4 + y_22 + y_62 + y_88 >= 1
 c_1_89: y_11 + y_12 + y_24 + y_53 + y_64 + y_65 + y_89 + y_90 >= 1
 c_1_90: y_50 + y_65 + y_70 + y_89 + y_90 >= 1
 c_1_91: y_0 + y_5 + y_67 + y_91 >= 1
 c_1_92: y_15 + y_49 + y_52 + y_92 + y_99 >= 1
 c_1_93: y_1 + y_25 + y_86 + y_93 >= 1
 c_1_94: y_20 + y_55 + y_94 + y_98 >= 1
 c_1_95: y_17 + y_72 + y_87 + y_95 >= 1
 c_1_96: y_69 + y_96 >= 1
 c_1_97: y_45 + y_97 >= 1
 c_1_98: y_20 + y_55 + y_94 + y_98 >= 1
 c_1_99: y_15 + y_18 + y_49 + y_52 + y_66 + y_92 + y_99 >= 1
Bounds
 Constant = 1
Binaries
 y_0 y_1 y_2 y_3 y_4 y_5 y_6 y_7 y_8 y_9 y_10 y_11 y_12 y_13 y_14 y_15 y_16
 y_17 y_18 y_19 y_20 y_21 y_22 y_23 y_24 y_25 y_26 y_27 y_28 y_29 y_30 y_31
 y_32 y_33 y_34 y_35 y_36 y_37 y_38 y_39 y_40 y_41 y_42 y_43 y_44 y_45 y_46
 y_47 y_48 y_49 y_50 y_51 y_52 y_53 y_54 y_55 y_56 y_57 y_58 y_59 y_60 y_61
 y_62 y_63 y_64 y_65 y_66 y_67 y_68 y_69 y_70 y_71 y_72 y_73 y_74 y_75 y_76
 y_77 y_78 y_79 y_80 y_81 y_82 y_83 y_84 y_85 y_86 y_87 y_88 y_89 y_90 y_91
 y_92 y_93 y_94 y_95 y_96 y_97 y_98 y_99
End
